solution status: time limit reached
objective value:                     14.9999999884208
shell_i_$_48                                        1 	(obj:0)
shell_i_$_72                                        1 	(obj:0)
shell_i_$_53                                        1 	(obj:0)
shell_j_$_38                                        1 	(obj:0)
shell_j_$_55                                        1 	(obj:0)
shell_i_$_37                                        1 	(obj:0)
shell_i_$_71                                        1 	(obj:0)
shell_j_$_42                                        1 	(obj:0)
shell_i_$_74                                        1 	(obj:0)
shell_j_$_52                                        1 	(obj:0)
shell_j_$_70                                        1 	(obj:0)
shell_j_$_41                                        1 	(obj:0)
shell_j_$_73                                        1 	(obj:0)
shell_i_$_69                                        1 	(obj:0)
shell_j_$_69                                        1 	(obj:0)
shell_i_$_75                                        1 	(obj:0)
shell_i_$_47                                        1 	(obj:0)
shell_j_$_63                                        1 	(obj:0)
shell_i_$_45                                        1 	(obj:0)
shell_j_$_54                                        1 	(obj:0)
shell_j_$_62                                        1 	(obj:0)
shell_i_$_44                                        1 	(obj:0)
$_74_z                                             25 	(obj:0)
$_38_y                                              6 	(obj:0)
$_38_z                                             25 	(obj:0)
$_52_x                                              5 	(obj:0)
$_52_y                                              6 	(obj:0)
$_52_z                                             24 	(obj:0)
$_72_y                                              6 	(obj:0)
$_72_z                                             22 	(obj:0)
$_70_x                                              4 	(obj:0)
$_70_y                                              6 	(obj:0)
$_70_z                                             25 	(obj:0)
$_55_x                                              3 	(obj:0)
$_55_y                                              6 	(obj:0)
$_41_x                                              2 	(obj:0)
$_41_y                                              6 	(obj:0)
$_41_z                                             25 	(obj:0)
$_55_z                                             25 	(obj:0)
$_48_z                                             24 	(obj:0)
$_73_x                                              5 	(obj:0)
$_73_y                                              6 	(obj:0)
$_73_z                               23.0000000020671 	(obj:0)
$_48_x                                              6 	(obj:0)
$_37_x                                              6 	(obj:0)
$_69_x                                              6 	(obj:0)
$_69_y                                              6 	(obj:0)
$_69_z                                             24 	(obj:0)
$_37_y                                              6 	(obj:0)
$_37_z                                             25 	(obj:0)
$_75_x                                              6 	(obj:0)
$_75_y                                              5 	(obj:0)
$_75_z                                             24 	(obj:0)
$_53_x                                              6 	(obj:0)
$_53_y                               5.00000000319404 	(obj:0)
$_47_x                                              6 	(obj:0)
$_47_y                                              4 	(obj:0)
$_47_z                                             25 	(obj:0)
$_71_x                                              6 	(obj:0)
$_71_y                                              4 	(obj:0)
$_63_x                                              3 	(obj:0)
$_63_y                                              6 	(obj:0)
$_63_z                                             24 	(obj:0)
$_71_z                               23.9999999958174 	(obj:0)
$_53_z                                             23 	(obj:0)
$_45_x                                              6 	(obj:0)
$_45_y                                              3 	(obj:0)
$_45_z                                             25 	(obj:0)
$_48_y                                              2 	(obj:0)
$_42_x                                              2 	(obj:0)
$_54_x                                              6 	(obj:0)
$_54_y                                              6 	(obj:0)
$_54_z                                             23 	(obj:0)
$_42_y                                              6 	(obj:0)
$_42_z                                             24 	(obj:0)
$_62_x                                              4 	(obj:0)
$_62_y                                              6 	(obj:0)
$_62_z                                             24 	(obj:0)
$_72_x                                              6 	(obj:0)
$_38_x                                              5 	(obj:0)
$_44_x                                              6 	(obj:0)
$_44_y                               3.00000001116328 	(obj:0)
$_44_z                                             24 	(obj:0)
$_74_x                                              6 	(obj:0)
$_74_y                                              5 	(obj:0)
x111                                                2 	(obj:1)
x113                                0.999999997839834 	(obj:1)
x114                                0.999999999169223 	(obj:1)
x115                                                1 	(obj:1)
x121                                                2 	(obj:1)
x132                             6.71005563655868e-09 	(obj:1)
x134                                                1 	(obj:1)
x135                             6.44542933666767e-09 	(obj:1)
x142                                0.999999999169223 	(obj:1)
x148                                                2 	(obj:1)
x159                                0.999999998158051 	(obj:1)
x176                                                1 	(obj:1)
x180                                0.999999999169223 	(obj:1)
x185                                0.999999983421328 	(obj:1)
